L=18;
no=4;
njo=[6,6,5,7];
djo=[7,4,8,4];
trab=[12,3,6,2,3,3,3,6,6,3,12,6,3,6,4,3,6,4,12,2,4,18,18];
nprec=5;
prec=[| 6, 10,
      | 9, 14,
      | 10, 17,
      | 13, 20,
      | 16, 24 |];


%%%%%%%%%%%%%%%%%%%%%%%%%%%%%%%%%%%%%%%%%%%%%%%%%%%%%%%%%%%%%%%%%%%%%%
%  4
%
%  6   1   6   7  32
% 12   3   6   2   3   3   3 
%  1   1   1   0   0
%  1   2   2   0   0
%  1   3   3   0   0
%  1   4   4   0   0
%  1   5   5   0   0
%  1   6   6   0   1
%      2   4  10
%
%  6   7  12   4  27
%  6   6   3  12 
%  2   1   7   0   0
%  2   2   8   0   0
%  2   3   9   0   1
%      3   2  14
%  2   4  10   1   1
%      1   6   6
%      3   5  17
%  2   5  11   0   0
%  2   6  12   0   0
%
%  5  13  17   8  44
%  6   3   6   4   3   6   4  12 
%  3   1  13   0   1
%      4   3  20
%  3   2  14   1   0
%      2   3   9
%  3   3  15   0   0
%  3   4  16   0   1
%      4   7  24
%  3   5  17   1   0
%      2   4  10
%
%  7  18  24   4  42
%  2   4  18  18 
%  4   1  18   0   0
%  4   2  19   0   0
%  4   3  20   1   0
%      3   1  13
%  4   4  21   0   0
%  4   5  22   0   0
%  4   6  23   0   0
%  4   7  24   1   0
%      3   4  16
%
% 54
